&control
    calculation = 'scf'
    restart_mode='from_scratch'
    prefix='Co.HCP'
    tstress = .true.
    tprnfor = .true.
    outdir = '.'
    pseudo_dir = '.'
 /        
 &system    
    ibrav=  4
    celldm(1)=4.50
    celldm(3)=1.70
    nat=  2
    ntyp= 1
    ecutwfc = 30 
    ecutrho = 250
    starting_magnetization(1) = 0.7
    occupations = 'smearing'
    degauss = 0.03
    smearing = 'cold'
    nspin = 2
 /
 &electrons
    mixing_beta = 0.7 
    conv_thr =  1.0d-8
 /
 ATOMIC_SPECIES
  Co  58.933  Co.pz-nd-rrkjus.UPF
 ATOMIC_POSITIONS (crystal)
  Co   0.3333333333  0.6666666667  0.25 
  Co   0.6666666667  0.3333333333  0.75 
 K_POINTS {automatic}
  12 12 6 0 0 0 
