 &control
    calculation = 'scf'
    restart_mode='from_scratch'
    prefix='Co.FCC'
    tstress = .true.
    tprnfor = .true.
    outdir = '.'
    pseudo_dir = '.'
 /        
 &system    
    ibrav=  2
    celldm(1)=6.52
    nat=  1
    ntyp= 1
    ecutwfc=30 
    ecutrho=250
    starting_magnetization(1) = 0.7
    occupations = 'smearing'
    degauss = 0.03
    smearing = 'cold'
    nspin = 2
 /
 &electrons
    mixing_beta = 0.7 
    conv_thr =  1.0d-8
 /
 ATOMIC_SPECIES
  Co  58.933  Co.pz-nd-rrkjus.UPF
 ATOMIC_POSITIONS
  Co 0.00 0.00 0.00 
 K_POINTS {automatic}
    12 12 12 0 0 0 
