&BANDS
outdir='.',
prefix='basic',
filband='siliconbands.dat',
/
