&BANDS
outdir='.',
prefix='germanium',
filband='bandsgermanium.dat',
/
