#************************************************************************************
#*                   Generated by cif2cell 1.2.10 2020-01-21 9:02                   *
#*  T. Bjorkman, Comp. Phys. Commun. 182, 1183-1186 (2011). Please cite generously. *
#*                                                                                  *
#*                Data obtained from COD. Reference number : 9008567                *
#*                                         ()                                       *
#*               Wyckoff, R. W. G., Crystal Structures 1, 7-83 (1963)               *
#************************************************************************************
&CONTROL
  calculation='scf',
  outdir='.',
  prefix='germanium',
  pseudo_dir='.',
  verbosity='low',
  tprnfor=.true.,
  tstress=.true.,
/

&SYSTEM
  ibrav = 0
  A =    5.65735
  nat = 2
  ntyp = 1
  nbnd = 10,
  ecutwfc=50,
  ecutrho=200,
  input_dft='pbe',
 ! occupations='smearing',
 ! smearing='mv',
 ! degauss=0.005d0,
 /

&ELECTRONS
  conv_thr=1d-08,
  mixing_beta=0.7d0,
/

CELL_PARAMETERS {alat}
  0.500000000000000   0.500000000000000   0.000000000000000 
  0.500000000000000   0.000000000000000   0.500000000000000 
  0.000000000000000   0.500000000000000   0.500000000000000 
ATOMIC_SPECIES
  Ge   72.63000  Ge.pbe-kjpaw.UPF
ATOMIC_POSITIONS {crystal}
Ge   0.000000000000000   0.000000000000000   0.000000000000000 
Ge   0.250000000000000   0.250000000000000   0.250000000000000 

K_POINTS {automatic}
6 6 6 1 1 1
