#************************************************************************************
#*                   Generated by cif2cell 1.2.10 2020-02-18 1:44                   *
#*  T. Bjorkman, Comp. Phys. Commun. 182, 1183-1186 (2011). Please cite generously. *
#*                                                                                  *
#*                Data obtained from COD. Reference number : 9008678                *
#*                                      (Halite)                                    *
#*              Wyckoff, R. W. G., Crystal Structures 1, 85-237 (1963)              *
#************************************************************************************

&CONTROL
 calculation='scf',
 outdir='.',
 prefix='halite',
 pseudo_dir='.',
 verbosity='low',
 tprnfor=.true.,
 tstress=.true.,
/


&SYSTEM
  ibrav = 0
  A =    5.64056
  nat = 2
  ntyp = 2
  ecutwfc=166,
  ecutrho=830,
  input_dft='PBE'
  occupations='smearing',
  smearing='mv',
  degauss=0.005d0,
/

&ELECTRONS
  conv_thr=1d-08,
  mixing_beta=0.7d0,
/

CELL_PARAMETERS {alat}
  0.500000000000000   0.500000000000000   0.000000000000000 
  0.500000000000000   0.000000000000000   0.500000000000000 
  0.000000000000000   0.500000000000000   0.500000000000000 
ATOMIC_SPECIES
  Na   22.98900  Na.pbe-spn-kjpaw_psl.1.0.0.UPF
  Cl   35.45150  Cl.pbe-n-kjpaw_psl.1.0.0.UPF
ATOMIC_POSITIONS {crystal}
Cl   0.500000000000000   0.500000000000000   0.500000000000000 
Na   0.000000000000000   0.000000000000000   0.000000000000000 

K_POINTS {automatic}
   7 7 7 0 0 0
